minizinc/sudoku_problems2/sudoku_p1.dzn
%
% sudoku_p1.dzn
% See http://www.hakank.org/minizinc/sudoku_gcc.mzn
% 
% This problem is problem 1 from
% Gecode's sudoku.cpp
% http://www.gecode.org/gecode-doc-latest/sudoku_8cpp-source.html
% 
x = array2d(1..n, 1..n, [   
% 1
  3,  _,  _,  9,  _,  4,  _,  _,  1,
  _,  _,  2,  _,  _,  _,  4,  _,  _,
  _,  6,  1,  _,  _,  _,  7,  9,  _,
  6,  _,  _,  2,  4,  7,  _,  _,  5,
  _,  _,  _,  _,  _,  _,  _,  _,  _,
  2,  _,  _,  8,  3,  6,  _,  _,  4,
  _,  4,  6,  _,  _,  _,  2,  3,  _,
  _,  _,  9,  _,  _,  _,  6,  _,  _,
  5,  _,  _,  3,  _,  9,  _,  _,  8
]);

n = 9;


